NAME : morphed22-2-6
COMMENT : Generated using the function morphInstances from the R-package netgen (Bossek,2015) - Number of clusters: 2 Alpha: 0.5
TYPE : TSP
DIMENSION : 22
EDGE_WEIGHT_TYPE : EUC_2D
NODE_COORD_SECTION
1 38.0378554824 11.2485047816
2 57.9055866222 18.2492100382
3 37.8943047399 80.3488199505
4 20.9150454553 25.9332643822
5 46.7438596439 26.1772191132
6 87.6343180775 95.4185379963
7 56.5461989382 21.3608148256
8 66.8092608396 65.4352149846
9 51.772585645 71.9494935895
10 4.7050555693 11.8921156318
11 62.6208023439 96.4599324969
12 77.4150569609 87.4181399436
13 7.8127398759 13.8830881444
14 35.8939976019 92.2708221385
15 46.4255495864 28.7009339629
16 17.4396728177 2.9895494366
17 52.3390608387 96.6170771659
18 63.6955292804 82.3948751816
19 7.6177131499 48.4135021215
20 68.6497438866 78.8001748846
21 66.4847539073 4.4856849862
22 76.6553860302 96.1276976523
EOF
